words_easy_train/words_277_SAT.qaiger
aag 84 16 0 1 68
32
2
14
16
26
22
24
10
28
18
4
30
20
8
12
6
169
34 4 2
36 35 7
38 36 9
40 38 11
42 41 12
44 42 14
46 43 15
48 47 45
50 20 18
52 50 22
54 52 24
56 54 26
58 56 28
60 58 30
62 59 31
64 63 61
66 65 49
68 51 23
70 69 53
72 70 7
74 18 2
76 75 21
78 76 5
80 79 51
82 81 35
84 82 73
86 53 25
88 87 55
90 37 8
92 91 39
94 92 89
96 70 6
98 97 37
100 99 95
102 100 85
104 55 27
106 105 57
108 39 10
110 109 41
112 111 106
114 93 88
116 115 113
118 116 103
120 110 107
122 40 13
124 123 43
126 57 29
128 127 59
130 129 125
132 131 121
134 132 119
136 64 48
138 128 124
140 139 137
142 140 135
144 143 67
146 33 16
148 32 17
150 149 147
152 150 45
154 151 44
156 155 153
158 156 60
160 157 61
162 161 159
164 162 144
166 163 145
168 167 165
i0 2 y1[7]
i1 1 x1[0]
i2 1 x1[6]
i3 1 x1[7]
i4 2 y1[4]
i5 2 y1[2]
i6 2 y1[3]
i7 1 x1[4]
i8 2 y1[5]
i9 2 y1[0]
i10 1 x1[1]
i11 2 y1[6]
i12 2 y1[1]
i13 1 x1[3]
i14 1 x1[5]
i15 1 x1[2]
o0 bv[0]
c
simplified
  <
    add
      157
      1 x1
    invert
      2 y1
