words_easy_train/words_277_SAT.qaiger.qdimacs
p cnf 84 205
a 1 2 3 4 5 6 7 8 0
e 9 10 11 12 13 14 15 16 17 18 19 20 21 22 23 24 25 26 27 28 29 30 31 32 33 34 35 36 37 38 39 40 41 42 43 44 45 46 47 48 49 50 51 52 53 54 55 56 57 58 59 60 61 62 63 64 65 66 67 68 69 70 71 72 73 74 75 76 77 78 79 80 81 82 83 84 0
-2 -1 17 0
2 -17 0
1 -17 0
17 3 18 0
-17 -18 0
-3 -18 0
-18 4 19 0
18 -19 0
-4 -19 0
-19 5 20 0
19 -20 0
-5 -20 0
20 -6 21 0
-20 -21 0
6 -21 0
-21 -7 22 0
21 -22 0
7 -22 0
21 7 23 0
-21 -23 0
-7 -23 0
23 22 24 0
-23 -24 0
-22 -24 0
-10 -9 25 0
10 -25 0
9 -25 0
-25 -11 26 0
25 -26 0
11 -26 0
-26 -12 27 0
26 -27 0
12 -27 0
-27 -13 28 0
27 -28 0
13 -28 0
-28 -14 29 0
28 -29 0
14 -29 0
-29 -15 30 0
29 -30 0
15 -30 0
29 15 31 0
-29 -31 0
-15 -31 0
31 30 32 0
-31 -32 0
-30 -32 0
32 24 33 0
-32 -33 0
-24 -33 0
25 11 34 0
-25 -34 0
-11 -34 0
34 26 35 0
-34 -35 0
-26 -35 0
-35 3 36 0
35 -36 0
-3 -36 0
-9 -1 37 0
9 -37 0
1 -37 0
37 10 38 0
-37 -38 0
-10 -38 0
-38 2 39 0
38 -39 0
-2 -39 0
39 25 40 0
-39 -40 0
-25 -40 0
40 17 41 0
-40 -41 0
-17 -41 0
-41 36 42 0
41 -42 0
-36 -42 0
26 12 43 0
-26 -43 0
-12 -43 0
43 27 44 0
-43 -44 0
-27 -44 0
18 -4 45 0
-18 -45 0
4 -45 0
45 19 46 0
-45 -46 0
-19 -46 0
-46 44 47 0
46 -47 0
-44 -47 0
-35 -3 48 0
35 -48 0
3 -48 0
48 18 49 0
-48 -49 0
-18 -49 0
49 47 50 0
-49 -50 0
-47 -50 0
-50 42 51 0
50 -51 0
-42 -51 0
27 13 52 0
-27 -52 0
-13 -52 0
52 28 53 0
-52 -53 0
-28 -53 0
19 -5 54 0
-19 -54 0
5 -54 0
54 20 55 0
-54 -55 0
-20 -55 0
55 -53 56 0
-55 -56 0
53 -56 0
46 -44 57 0
-46 -57 0
44 -57 0
57 56 58 0
-57 -58 0
-56 -58 0
-58 51 59 0
58 -59 0
-51 -59 0
-55 53 60 0
55 -60 0
-53 -60 0
-20 6 61 0
20 -61 0
-6 -61 0
61 21 62 0
-61 -62 0
-21 -62 0
28 14 63 0
-28 -63 0
-14 -63 0
63 29 64 0
-63 -64 0
-29 -64 0
64 62 65 0
-64 -65 0
-62 -65 0
65 60 66 0
-65 -66 0
-60 -66 0
-66 59 67 0
66 -67 0
-59 -67 0
-32 -24 68 0
32 -68 0
24 -68 0
-64 -62 69 0
64 -69 0
62 -69 0
69 68 70 0
-69 -70 0
-68 -70 0
-70 67 71 0
70 -71 0
-67 -71 0
71 33 72 0
-71 -72 0
-33 -72 0
16 -8 73 0
-16 -73 0
8 -73 0
-16 8 74 0
16 -74 0
-8 -74 0
74 73 75 0
-74 -75 0
-73 -75 0
-75 22 76 0
75 -76 0
-22 -76 0
75 -22 77 0
-75 -77 0
22 -77 0
77 76 78 0
-77 -78 0
-76 -78 0
-78 -30 79 0
78 -79 0
30 -79 0
78 30 80 0
-78 -80 0
-30 -80 0
80 79 81 0
-80 -81 0
-79 -81 0
-81 -72 82 0
81 -82 0
72 -82 0
81 72 83 0
-81 -83 0
-72 -83 0
83 82 84 0
-83 -84 0
-82 -84 0
-84 0
